p cnf 18 19
-1 18 0 
-2 -3 -4 18 0 
-5 18 0 
-5 -6 18 0 
-7 -8 18 0 
-5 -7 -9 18 0 
-10 18 0 
-11 -7 18 0 
-4 18 0 
-5 -7 -4 18 0 
-12 18 0 
-2 -13 18 0 
-6 18 0 
-14 16 18 0 
-15 18 0 
-11 -12 18 0 
-16 14 18 0 
-17 -6 18 0 
-8 18 0 
